language ESSENCE' 1.0

letting jobs = 102
letting horizon = 796
letting resourcesRenew = 2
letting resourcesNonrenew = 2
letting resourceLimits = [12, 11, 590, 586]
letting successors = [[2, 3, 4, 5, 6, 7, 9, 12], [18, 15, 14, 11, 8], [26, 18, 16, 15, 11, 10], [26, 23, 22, 21, 19, 17, 13], [26, 25, 23, 22, 21, 18, 11], [39, 28, 26, 25, 24, 22, 21, 19], [30, 28, 27, 26, 25, 24, 21, 20], [39, 32, 26, 25, 22, 19, 16], [40, 34, 32, 30, 29, 28, 27, 25, 20], [34, 24, 20, 17], [40, 34, 32, 29, 28, 27, 20], [40, 34, 32, 29, 28, 27, 20], [28, 27, 25, 20, 18], [44, 30, 28, 27, 21], [40, 39, 37, 30, 29, 23], [44, 40, 34, 33, 28, 27], [39, 28, 27, 25], [45, 37, 34, 33, 31, 29], [44, 37, 35, 29, 27], [45, 44, 39, 37, 36, 35, 33, 31], [45, 34, 32, 31, 29], [42, 40, 35, 31, 30], [44, 35, 27], [46, 45, 37, 35, 29], [45, 42, 36, 33, 31], [47, 46, 45, 42, 40, 36, 35], [46, 45, 42, 38, 36, 31], [50, 47, 45, 43, 37, 36], [47, 43, 42, 38, 36], [36, 33], [57, 51, 50, 49, 47, 43, 41], [49, 46, 41, 35], [54, 52, 51, 46, 38], [46, 41, 35], [60, 59, 52, 51, 50, 48, 43], [57, 51, 49, 41], [57, 51, 49, 41], [60, 59, 57, 56, 50, 49, 48], [60, 59, 58, 57, 54, 51, 48], [60, 59, 57, 43], [66, 62, 59, 56, 53, 52, 48], [62, 59, 58, 53, 51, 48], [66, 64, 62, 61, 58, 56, 55, 54, 53], [66, 65, 64, 57, 56, 52], [66, 65, 64, 63, 62, 61, 60, 58, 56, 54], [66, 64, 61, 56, 55, 53], [63, 62, 61, 60, 59, 56], [72, 69, 68, 65, 64, 63, 61, 55], [77, 72, 67, 66, 65, 62, 58], [77, 68, 67, 66, 61, 53], [83, 77, 66, 64, 63, 56], [77, 68, 67, 63, 61, 58], [75, 74, 71, 69, 65, 63], [94, 83, 75, 74, 73, 69, 67], [94, 83, 77, 76, 75, 73, 67], [94, 73, 72, 71, 69, 68], [83, 76, 75, 62], [94, 83, 81, 75, 73, 69], [77, 76, 73, 71, 70], [94, 83, 76, 74, 67], [93, 83, 78, 75, 71, 70], [78, 74, 71, 70], [93, 91, 88, 85, 84, 81, 78, 70], [93, 84, 80, 78, 76, 71], [101, 94, 93, 92, 91, 88, 86, 85, 84, 83, 80, 79, 78], [92, 88, 86, 84, 82, 81, 78, 74], [92, 84, 78, 71], [92, 86, 84, 81, 78, 74], [99, 93, 88, 87, 84, 79, 76], [101, 94, 92, 87, 86, 82, 80, 79], [91, 88, 86, 85, 82, 81, 79], [101, 100, 99, 87, 85, 84, 76], [101, 90, 88, 86, 84, 82, 80, 78], [101, 93, 91, 80, 79], [101, 99, 97, 92, 91, 90, 85, 84], [98, 92, 91, 90, 89, 86], [100, 99, 98, 97, 95, 93], [98, 89, 87], [100, 98, 96, 90], [99, 97, 95, 89], [101, 100, 95, 89], [99, 97, 96, 95], [97, 95, 89], [98, 96, 95], [95, 89], [96, 95], [97, 95], [89], [96], [95], [95], [95], [96], [95], [102], [102], [102], [102], [102], [102], [102], []]
letting durations = [[0], [5, 7, 10], [3, 4, 6], [1, 3, 9], [1, 8, 9], [3, 4, 7], [3, 8, 10], [1, 7, 8], [3, 6, 8], [3, 5, 7], [4, 5, 6], [2, 3, 9], [7, 9, 10], [8, 9, 10], [1, 3, 4], [1, 3, 9], [6, 7, 8], [4, 8, 9], [5, 6, 9], [2, 3, 3], [2, 9, 10], [1, 2, 4], [2, 7, 9], [1, 7, 8], [1, 4, 6], [2, 7, 10], [6, 7, 8], [2, 3, 7], [4, 7, 10], [3, 7, 9], [1, 10, 10], [4, 7, 10], [3, 9, 10], [2, 3, 7], [6, 8, 10], [2, 4, 7], [2, 3, 8], [1, 6, 7], [2, 9, 10], [1, 2, 9], [3, 3, 8], [5, 5, 10], [5, 6, 9], [3, 5, 10], [1, 5, 6], [6, 9, 9], [6, 7, 7], [1, 7, 9], [4, 5, 10], [2, 6, 8], [5, 7, 9], [4, 8, 8], [3, 7, 8], [2, 5, 8], [1, 6, 10], [8, 9, 9], [7, 9, 10], [1, 6, 8], [2, 2, 3], [7, 8, 10], [3, 5, 6], [4, 7, 10], [3, 4, 5], [5, 6, 7], [2, 3, 7], [3, 6, 9], [1, 6, 7], [4, 5, 7], [2, 3, 9], [2, 3, 4], [1, 6, 8], [3, 5, 6], [5, 6, 9], [3, 6, 10], [3, 5, 5], [1, 6, 7], [2, 7, 10], [1, 6, 8], [1, 2, 5], [4, 7, 10], [2, 6, 7], [2, 3, 7], [1, 1, 6], [3, 7, 7], [3, 8, 10], [5, 7, 8], [2, 3, 6], [4, 8, 10], [4, 5, 9], [2, 8, 9], [3, 6, 8], [2, 4, 6], [4, 6, 8], [1, 2, 7], [2, 5, 7], [6, 8, 10], [2, 4, 8], [1, 6, 7], [1, 3, 4], [4, 4, 8], [5, 5, 6], [0]]
letting resourceUsage = [[[0, 0, 0, 0]], [[5, 0, 5, 6], [0, 2, 5, 5], [3, 0, 2, 5]], [[0, 3, 6, 4], [0, 3, 4, 3], [2, 0, 4, 2]], [[0, 3, 3, 7], [1, 0, 1, 6], [1, 0, 1, 5]], [[0, 1, 5, 4], [3, 0, 3, 3], [0, 1, 2, 3]], [[4, 0, 7, 8], [0, 3, 5, 7], [4, 0, 1, 5]], [[4, 0, 9, 10], [0, 2, 7, 6], [4, 0, 5, 6]], [[0, 2, 8, 4], [2, 0, 8, 3], [2, 0, 8, 2]], [[4, 0, 8, 4], [0, 2, 7, 3], [4, 0, 7, 3]], [[2, 0, 9, 7], [0, 2, 9, 6], [1, 0, 9, 6]], [[5, 0, 2, 9], [0, 4, 1, 6], [5, 0, 1, 2]], [[3, 0, 9, 3], [0, 4, 9, 2], [3, 0, 9, 2]], [[2, 0, 9, 7], [2, 0, 6, 5], [0, 3, 3, 3]], [[0, 4, 7, 7], [0, 3, 6, 7], [0, 2, 5, 6]], [[0, 2, 8, 8], [0, 1, 6, 7], [0, 1, 3, 6]], [[2, 0, 4, 8], [0, 2, 2, 8], [1, 0, 2, 8]], [[0, 5, 8, 7], [0, 4, 8, 7], [0, 4, 7, 6]], [[4, 0, 5, 7], [0, 4, 4, 5], [2, 0, 3, 5]], [[5, 0, 8, 9], [0, 2, 7, 8], [5, 0, 6, 8]], [[3, 0, 1, 8], [3, 0, 1, 7], [0, 2, 1, 5]], [[0, 5, 6, 8], [0, 3, 6, 8], [0, 3, 4, 8]], [[2, 0, 2, 7], [2, 0, 1, 7], [0, 1, 1, 4]], [[0, 4, 7, 4], [0, 4, 5, 3], [2, 0, 5, 2]], [[0, 2, 4, 5], [2, 0, 3, 2], [0, 2, 2, 2]], [[0, 4, 7, 10], [0, 4, 4, 7], [3, 0, 2, 7]], [[0, 4, 5, 9], [0, 2, 2, 9], [1, 0, 1, 9]], [[0, 4, 8, 6], [3, 0, 7, 5], [2, 0, 7, 5]], [[5, 0, 5, 6], [3, 0, 4, 6], [1, 0, 4, 6]], [[0, 3, 5, 5], [0, 2, 5, 3], [0, 2, 5, 2]], [[2, 0, 7, 8], [0, 3, 4, 7], [0, 1, 2, 7]], [[0, 5, 7, 6], [1, 0, 5, 5], [0, 2, 4, 4]], [[0, 4, 8, 7], [4, 0, 4, 5], [2, 0, 2, 2]], [[0, 5, 9, 10], [0, 3, 8, 10], [2, 0, 8, 10]], [[5, 0, 7, 9], [4, 0, 4, 8], [4, 0, 4, 7]], [[4, 0, 5, 7], [0, 4, 2, 5], [0, 3, 1, 5]], [[0, 5, 6, 6], [0, 3, 6, 3], [2, 0, 6, 3]], [[2, 0, 4, 10], [1, 0, 4, 6], [0, 4, 4, 5]], [[2, 0, 7, 8], [2, 0, 6, 8], [0, 3, 5, 6]], [[0, 5, 10, 7], [2, 0, 6, 7], [1, 0, 6, 7]], [[0, 5, 9, 8], [0, 4, 5, 5], [4, 0, 4, 4]], [[0, 3, 10, 3], [4, 0, 10, 3], [4, 0, 10, 2]], [[4, 0, 6, 8], [0, 4, 5, 4], [3, 0, 4, 3]], [[0, 1, 5, 8], [0, 1, 5, 5], [0, 1, 3, 3]], [[5, 0, 5, 3], [3, 0, 3, 3], [0, 1, 3, 1]], [[0, 2, 4, 8], [3, 0, 4, 8], [3, 0, 4, 7]], [[0, 4, 1, 7], [2, 0, 1, 5], [0, 3, 1, 5]], [[0, 5, 8, 4], [3, 0, 5, 3], [0, 5, 4, 3]], [[0, 5, 10, 4], [0, 4, 8, 3], [0, 4, 5, 1]], [[0, 5, 4, 7], [3, 0, 4, 3], [3, 0, 3, 2]], [[4, 0, 5, 9], [0, 4, 4, 9], [0, 4, 4, 8]], [[0, 3, 6, 7], [0, 3, 4, 5], [0, 3, 3, 2]], [[0, 3, 9, 6], [0, 3, 8, 4], [2, 0, 7, 4]], [[0, 5, 8, 10], [1, 0, 5, 8], [1, 0, 1, 7]], [[4, 0, 7, 5], [3, 0, 5, 5], [3, 0, 3, 5]], [[0, 5, 10, 5], [4, 0, 7, 5], [2, 0, 7, 5]], [[2, 0, 10, 7], [2, 0, 6, 7], [0, 1, 6, 4]], [[0, 3, 8, 10], [0, 2, 8, 4], [0, 1, 7, 3]], [[0, 3, 7, 6], [0, 2, 7, 5], [2, 0, 3, 4]], [[0, 5, 10, 3], [2, 0, 4, 2], [2, 0, 2, 2]], [[4, 0, 4, 8], [4, 0, 4, 7], [0, 2, 4, 6]], [[0, 4, 7, 4], [0, 4, 6, 4], [0, 4, 4, 4]], [[0, 2, 8, 7], [0, 2, 6, 5], [3, 0, 6, 2]], [[0, 2, 2, 8], [3, 0, 2, 5], [3, 0, 1, 3]], [[2, 0, 8, 2], [0, 2, 6, 2], [1, 0, 6, 2]], [[0, 4, 7, 3], [1, 0, 7, 2], [0, 2, 6, 2]], [[2, 0, 7, 3], [2, 0, 4, 3], [2, 0, 4, 2]], [[0, 4, 4, 4], [2, 0, 3, 3], [0, 1, 3, 3]], [[0, 3, 6, 8], [0, 3, 3, 8], [0, 3, 3, 7]], [[0, 4, 8, 9], [0, 3, 5, 6], [0, 1, 3, 6]], [[0, 4, 6, 3], [0, 4, 5, 3], [0, 4, 4, 3]], [[0, 5, 6, 3], [3, 0, 4, 2], [0, 5, 4, 2]], [[0, 3, 6, 4], [0, 2, 6, 4], [0, 2, 6, 3]], [[4, 0, 7, 3], [0, 2, 7, 2], [4, 0, 6, 2]], [[0, 3, 5, 6], [3, 0, 4, 4], [3, 0, 4, 1]], [[3, 0, 7, 9], [3, 0, 6, 7], [0, 3, 5, 6]], [[3, 0, 8, 6], [0, 3, 6, 5], [3, 0, 4, 1]], [[0, 5, 5, 4], [0, 2, 5, 4], [0, 1, 5, 4]], [[0, 1, 5, 4], [5, 0, 3, 3], [0, 1, 3, 3]], [[4, 0, 8, 1], [4, 0, 7, 1], [4, 0, 6, 1]], [[4, 0, 7, 5], [3, 0, 6, 5], [3, 0, 6, 4]], [[0, 5, 7, 10], [0, 4, 7, 8], [0, 4, 6, 5]], [[0, 3, 9, 8], [3, 0, 8, 7], [1, 0, 6, 4]], [[0, 4, 9, 6], [4, 0, 6, 5], [0, 4, 6, 4]], [[3, 0, 7, 7], [0, 2, 6, 5], [1, 0, 5, 1]], [[5, 0, 6, 5], [4, 0, 4, 3], [0, 3, 1, 3]], [[3, 0, 8, 5], [3, 0, 7, 4], [3, 0, 7, 2]], [[0, 3, 5, 10], [2, 0, 5, 7], [2, 0, 5, 4]], [[0, 1, 6, 8], [0, 1, 4, 6], [0, 1, 4, 5]], [[3, 0, 7, 4], [0, 3, 4, 3], [1, 0, 4, 1]], [[0, 4, 8, 9], [0, 4, 7, 6], [0, 4, 7, 5]], [[4, 0, 4, 7], [0, 1, 4, 7], [4, 0, 4, 6]], [[4, 0, 6, 9], [2, 0, 6, 8], [1, 0, 6, 8]], [[0, 3, 10, 4], [3, 0, 9, 4], [0, 1, 9, 4]], [[0, 4, 5, 2], [0, 4, 5, 1], [0, 2, 3, 1]], [[4, 0, 8, 7], [2, 0, 5, 5], [0, 2, 5, 5]], [[5, 0, 5, 6], [3, 0, 4, 4], [0, 1, 3, 4]], [[2, 0, 9, 7], [0, 3, 6, 7], [0, 3, 4, 7]], [[0, 3, 4, 8], [2, 0, 3, 7], [2, 0, 3, 6]], [[0, 4, 1, 6], [3, 0, 1, 4], [0, 2, 1, 4]], [[3, 0, 6, 9], [0, 2, 5, 9], [0, 1, 3, 9]], [[0, 2, 3, 4], [4, 0, 2, 3], [4, 0, 2, 2]], [[0, 0, 0, 0]]]
